
  32    1
  10

   0   0   8 2 3 5 6 7 8 10 11 
   9   5   4 15 13 9 4 
   8   3   6 19 18 17 16 15 14 
   8   8   5 19 18 17 14 12 
   6   5   3 25 17 9 
  10   6   4 18 16 15 14 
   5   5   5 24 22 18 17 16 
   4  10   5 24 20 18 16 15 
   9   6   6 29 24 22 20 19 16 
   7   3   5 31 24 22 19 17 
   6   5   5 31 30 24 22 17 
   5   9   5 31 29 25 24 20 
   5   6   3 31 30 17 
   8   4   5 30 29 28 24 20 
   5   3   4 30 29 22 21 
   4   4   4 31 30 28 21 
   7  10   3 29 21 20 
   4   5   3 31 29 23 
   4   5   3 30 28 26 
   2   6   2 27 23 
   8   7   2 27 23 
   2   5   2 28 26 
   7   7   1 26 
   7   3   1 26 
   3   7   1 28 
   6   6   1 32
   5   6   1 32
   4   7   1 32
   5  10   1 32
  10   4   1 32
   5  10   1 32
   0   0   0 
